p cnf 50 50
3 29 38 0
47 8 21 0
-45 -15 -49 0
24 -45 20 0
-16 4 -28 0
-31 20 5 0
11 -16 -44 0
-32 50 6 0
26 -3 -6 0
12 -33 -3 0
-29 27 -41 0
2 31 -19 0
-22 36 -33 0
39 13 -1 0
27 -12 -37 0
40 39 -30 0
-33 10 -42 0
36 7 -49 0
6 31 -47 0
-27 22 -1 0
-42 1 -48 0
31 42 16 0
40 -22 25 0
28 8 -3 0
39 -41 3 0
-43 23 20 0
19 48 24 0
8 33 41 0
-37 41 19 0
47 24 -34 0
-18 35 -27 0
-23 20 39 0
48 11 -21 0
31 -27 -17 0
22 -43 33 0
-35 16 37 0
41 -40 30 0
11 -41 17 0
-48 6 -46 0
40 -32 17 0
34 10 -36 0
39 -2 -15 0
30 -10 3 0
3 26 -4 0
9 19 7 0
-6 9 17 0
-22 1 7 0
31 32 -12 0
-48 -27 -47 0
-50 -17 6 0
